c is-unsat
p cnf 12 80
6 1 2 0
-12 -5 1 0
-6 -5 -1 0
6 -10 -8 0
4 -9 1 0
-12 -1 -7 0
5 8 -7 0
11 -5 12 0
3 -4 9 0
-4 -10 -11 0
-8 6 -5 0
-5 -2 9 0
1 -2 12 0
1 11 -4 0
-11 12 4 0
12 -4 -6 0
-11 -1 4 0
4 -11 -8 0
-7 -1 -12 0
8 -11 6 0
-3 -10 4 0
-3 -8 -4 0
-6 8 -12 0
10 -8 -12 0
11 -8 2 0
5 7 -3 0
9 -8 -3 0
5 -8 -2 0
-5 7 -8 0
-6 -8 -2 0
3 -5 11 0
-5 -7 -2 0
-8 -7 -6 0
-1 -4 7 0
-11 -4 12 0
12 -10 6 0
-7 -3 -1 0
8 -2 -11 0
10 -11 -5 0
-12 -3 -5 0
-5 1 -2 0
-11 3 -4 0
-11 -1 2 0
-12 5 -3 0
-12 -10 -3 0
-7 -1 10 0
-5 -2 -7 0
7 -3 12 0
1 -4 2 0
-11 -5 -7 0
-8 -12 -4 0
-5 6 3 0
-1 -8 -2 0
-9 -6 -4 0
2 -5 -4 0
-9 -11 -8 0
-10 -11 -2 0
12 9 4 0
-6 -3 8 0
-2 1 9 0
-5 11 3 0
-9 11 -1 0
-5 -6 -4 0
3 5 -8 0
1 -4 -5 0
10 6 -2 0
-12 6 -2 0
9 -11 12 0
-4 -7 5 0
-9 -11 -5 0
4 -3 8 0
-3 -9 -8 0
8 -1 11 0
-5 -11 6 0
-6 -4 -9 0
-9 5 -8 0
6 -7 -3 0
-10 -6 -9 0
-8 -9 7 0
-5 -7 -4 0
